n  12
M  45
SP 50
8	16  34  4.25 
4	12  38  9.5
6	5   45  7.5
4	7   43  10.75
6	5   45  7.5
9	6   44  4.88
8	12  38  4.75
9	5   45  5
3	5   45  15
5	6   44  8.8
7	8   42  6
9   12  39  4.33

